ALGO = Fast
EDIFF = 0.0001
EDIFFG = -0.02
ENCUT = 400
GGA = Bf
IBRION = 2
ISIF = 2
ISMEAR = 1
ISPIN = 1
LASPH = True
LBEEFENS = True
LORBIT = 11
LREAL = Auto
LUSE_VDW = True
LVTOT = True
LWAVE = False
MAGMOM = 66*0.6
NELM = 100
NELMIN = 8
NSW = 99
PREC = Accurate
SIGMA = 0.05
ZAB_VDW = -1.8867
