Ag54 H8 C3 O1
1.0
8.901729 0.000000 0.000000
-4.450866 7.709124 0.000000
0.000000 0.000000 36.341162
Ag H C O
54 8 3 1
Selective dynamics
direct
0.111111 0.222222 0.033411 F F F Ag
0.111111 0.555556 0.033411 F F F Ag
0.111111 0.888889 0.033411 F F F Ag
0.444444 0.222222 0.033411 F F F Ag
0.444444 0.555556 0.033411 F F F Ag
0.444444 0.888889 0.033411 F F F Ag
0.777778 0.222222 0.033411 F F F Ag
0.777778 0.555556 0.033411 F F F Ag
0.777778 0.888889 0.033411 F F F Ag
0.000000 0.000000 0.166626 F F F Ag
1.000000 0.333333 0.166626 F F F Ag
1.000000 0.666667 0.166626 F F F Ag
0.333333 0.000000 0.166626 F F F Ag
0.333333 0.333333 0.166626 F F F Ag
0.333333 0.666667 0.166626 F F F Ag
0.666667 0.000000 0.166626 F F F Ag
0.666667 0.333333 0.166626 F F F Ag
0.666667 0.666667 0.166626 F F F Ag
0.222222 0.111111 0.100128 F F F Ag
0.222222 0.444444 0.100128 F F F Ag
0.222222 0.777778 0.100128 F F F Ag
0.555556 0.111111 0.100128 F F F Ag
0.555556 0.444444 0.100128 F F F Ag
0.555556 0.777778 0.100128 F F F Ag
0.888889 0.111111 0.100128 F F F Ag
0.888889 0.444444 0.100128 F F F Ag
0.888889 0.777778 0.100128 F F F Ag
0.111111 0.222222 0.233374 F F F Ag
0.111111 0.555556 0.233374 F F F Ag
0.111111 0.888889 0.233374 F F F Ag
0.444444 0.222222 0.233374 F F F Ag
0.444444 0.555556 0.233374 F F F Ag
0.444444 0.888889 0.233374 F F F Ag
0.777778 0.222222 0.233374 F F F Ag
0.777778 0.555556 0.233374 F F F Ag
0.777778 0.888889 0.233374 F F F Ag
0.000000 0.000000 0.366589 T T T Ag
1.000000 0.333333 0.366589 T T T Ag
1.000000 0.666667 0.366589 T T T Ag
0.333333 0.000000 0.366589 T T T Ag
0.333333 0.333333 0.366589 T T T Ag
0.333333 0.666667 0.366589 T T T Ag
0.666667 0.000000 0.366589 T T T Ag
0.666667 0.333333 0.366589 T T T Ag
0.666667 0.666667 0.366589 T T T Ag
0.222222 0.111111 0.299872 F F F Ag
0.222222 0.444444 0.299872 F F F Ag
0.222222 0.777778 0.299872 F F F Ag
0.555556 0.111111 0.299872 F F F Ag
0.555556 0.444444 0.299872 F F F Ag
0.555556 0.777778 0.299872 F F F Ag
0.888889 0.111111 0.299872 F F F Ag
0.888889 0.444444 0.299872 F F F Ag
0.888889 0.777778 0.299872 F F F Ag
0.391049 0.034228 0.451205 T T T H
0.240760 -0.191640 0.451617 T T T H
0.308996 -0.074714 0.493662 T T T H
0.165401 0.092900 0.476288 T T T H
-0.000000 -0.000000 0.421623 T T T H
-0.080187 -0.298349 0.467413 T T T H
-0.015222 -0.186197 0.510092 T T T H
-0.143353 -0.144269 0.479216 T T T H
0.276361 -0.068141 0.464940 T T T C
0.126747 -0.031958 0.462732 T T T C
-0.038004 -0.173808 0.480944 T T T C
0.098897 -0.016573 0.423998 T T T O
